data;
param c := 1 1.0 2 1.2 3 3.0 4 3.2;

param a: 1 2 3 4 5 6 :=
1 10.0 0.05 17.0 3.5  1.7  8.0
2 0.05 10.0 17.0 0.1  8.0  14.0
3 3.0  3.5  1.7  10.0 17.0 8.0
4 17.0 8.0  0.05 10.0 0.1  14.0
;

param p: 1 2 3 4 5 6 :=
1 0.1312 0.1696 0.5569 0.0124 0.8283 0.5886
2 0.2329 0.4135 0.8307 0.3736 0.1004 0.9991
3 0.2348 0.1451 0.3522 0.2883 0.3047 0.6650
4 0.4047 0.8828 0.8732 0.5743 0.1091 0.0381
;
